c ---- [ banner ] ------------------------------------------------------------
c
c Kissat SAT Solver
c 
c Copyright (c) 2021-2024 Armin Biere University of Freiburg
c Copyright (c) 2019-2021 Armin Biere Johannes Kepler University Linz
c 
c Version 4.0.1 43f02cf3e992cb44653b35e5cb26f93281552ae0
c gcc (Ubuntu 13.2.0-23ubuntu4) 13.2.0 -W -Wall -O3 -DNDEBUG
c Thu Sep 12 12:27:46 CEST 2024 Linux abryzen9 6.8.0-41-generic x86_64
c
c ---- [ parsing ] -----------------------------------------------------------
c
c opened and reading DIMACS file:
c
c   /data/artifact/AMulet2.0_artifact/exp4/cnf_resyn3_64/64_64_U2_DT_JCA_Multgen_resyn3.cnf
c
c parsed 'p cnf 27132 123975' header
c closing input after reading 2473537 bytes (2 MB)
c finished parsing after 0.03 seconds
c
c ---- [ options ] -----------------------------------------------------------
c
c --stable=0                       (different from default '1')
c
c ---- [ solving ] -----------------------------------------------------------
c
c  seconds switched rate     size/glue tier1  binary          remaining
c         MB reductions conflicts size  tier2    irredundant
c          level restarts redundant glue  trail          variables
c
c *  0.03 10 0 0 0  0 0   0   0 0.0 0 0 0 0 0% 3050 120923 27129 100%
c (  0.05 12 0 0 0  0 0   0   0 0.0 0 0 0 0 0% 3050 120923 27129 100%
c .  0.06 12 0 0 0  0 0   0   0 0.0 0 0 0 0 0% 3046 120923 27129 100%
c f  0.34 16 0 0 0  0 0   0   0 0.0 0 0 0 0 0% 9954 110433 30594 113%
c e  0.59 26 0 0 0  0 0   0   0 0.0 0 0 0 0 0% 2030 121377 20487 76%
c )  0.59 26 0 0 0  0 0   0   0 0.0 0 0 0 0 0% 2030 121377 20487 76%
c {  0.62 26 0 0 0  0 0   0   0 0.0 0 0 2 6 0% 2030 121377 20487 76%
c -  0.83 26 164 0 1 257 41 1002 830 2.1 9 4 3 8 14% 2076 121377 20487 76%
c -  1.16 28 249 0 2 442 49 2005 1617 3.7 18 5 3 9 21% 2093 121377 20487 76%
c d  1.32 28 315 0 2 512 52 2504 2082 3.8 19 5 3 9 22% 2088 121377 20483 75%
c u  1.35 28 315 0 2 512 52 2504 1793 3.8 19 5 3 9 22% 2089 121377 20483 75%
c v  1.37 28 315 0 2 512 52 2504 1552 3.8 19 5 3 9 22% 2089 121377 20483 75%
c w  1.41 28 315 0 2 512 52 2504 1552 3.8 19 5 3 9 22% 2089 121377 20483 75%
c x  1.44 28 315 0 2 512 52 2504 1552 3.8 19 5 3 9 22% 2089 121039 20483 75%
c t  1.46 28 315 0 2 512 52 2504 1552 3.8 19 5 3 9 22% 2086 121039 20483 75%
c f  1.50 28 315 0 2 512 52 2504 1552 3.8 19 5 3 9 22% 2148 120856 20515 76%
c c  1.58 23 315 0 2 512 52 2504 1552 3.8 19 5 3 9 22% 2151 120852 20514 76%
c d  1.59 23 315 0 2 512 52 2504 1552 3.8 19 5 3 9 22% 2149 120852 20514 76%
c u  1.61 23 315 0 2 512 52 2504 1517 3.8 19 5 3 9 22% 2149 120852 20514 76%
c v  1.62 23 315 0 2 512 52 2504 1470 3.8 19 5 3 9 22% 2149 120852 20514 76%
c
c  seconds   switched   rate       size/glue tier1    binary          remaining
c         MB  reductions conflicts       size  tier2     irredundant
c           level restarts    redundant    glue   trail          variables
c
c w  1.67 25 315 0 2 512 52 2504 1467 3.8 19 5 3 9 22% 2149 120852 20514 76%
c x  1.69 25 315 0 2 512 52 2504 1467 3.8 19 5 3 9 22% 2149 120837 20514 76%
c =  1.76 25 315 0 2 512 52 2504 1467 3.8 19 5 3 9 22% 2155 120837 20511 76%
c d  1.77 25 315 0 2 512 52 2504 1467 3.8 19 5 3 9 22% 2146 120837 20511 76%
c f  1.82 25 315 0 2 512 52 2504 1467 3.8 19 5 3 9 22% 2182 120780 20530 76%
c -  2.05 25 354 0 3 624 49 3420 2116 3.5 17 5 3 9 22% 2194 120780 20530 76%
c -  2.59 26 339 0 4 890 48 5152 3366 3.5 18 5 3 10 23% 2239 120780 20530 76%
c -  3.10 26 379 0 5 1085 48 7152 4607 3.4 17 5 2 10 23% 2271 120780 20530 76%
c d  3.27 26 361 0 5 1143 47 7713 5129 3.3 18 5 2 10 23% 2257 120780 20520 76%
c u  3.31 26 361 0 5 1143 47 7713 4755 3.3 18 5 2 10 23% 2262 120780 20520 76%
c v  3.35 26 361 0 5 1143 47 7713 4028 3.3 18 5 2 10 23% 2263 120780 20520 76%
c w  3.40 26 361 0 5 1143 47 7713 4022 3.3 18 5 2 10 23% 2263 120780 20520 76%
c =  3.55 26 361 0 5 1143 47 7713 4022 3.3 18 5 2 10 23% 2327 120780 20488 76%
c d  3.56 26 361 0 5 1143 47 7713 4018 3.3 18 5 2 10 23% 2262 120780 20488 76%
c t  3.58 26 361 0 5 1143 47 7713 4018 3.3 18 5 2 10 23% 2261 120780 20488 76%
c f  3.61 26 361 0 5 1143 47 7713 4018 3.3 18 5 2 10 23% 2343 120657 20529 76%
c u  3.65 26 361 0 5 1143 47 7713 3954 3.3 18 5 2 10 23% 2343 120657 20529 76%
c v  3.68 26 361 0 5 1143 47 7713 3867 3.3 18 5 2 10 23% 2343 120657 20529 76%
c w  3.71 26 361 0 5 1143 47 7713 3860 3.3 18 5 2 10 23% 2343 120657 20529 76%
c x  3.77 26 361 0 5 1143 47 7713 3860 3.3 18 5 2 10 23% 2343 120629 20529 76%
c
c  seconds   switched    rate       size/glue tier1     binary          remaining
c         MB  reductions  conflicts       size  tier2      irredundant
c           level  restarts    redundant    glue    trail          variables
c
c =  3.93 26 361 0 5 1143 47 7713 3860 3.3 18 5 2 10 23% 2485 120629 20458 75%
c d  3.93 26 361 0 5 1143 47 7713 3858 3.3 18 5 2 10 23% 2339 120629 20458 75%
c t  3.95 26 361 0 5 1143 47 7713 3858 3.3 18 5 2 10 23% 2303 120629 20458 75%
c f  3.99 26 361 0 5 1143 47 7713 3858 3.3 18 5 2 10 23% 2427 120443 20520 76%
c -  4.90 26 348 0 6 1426 48 9391 4862 3.9 24 6 2 9 25% 2443 120443 20520 76%
c o  4.97 26 339 0 6 1442 46 10002 5381 3.8 23 6 2 9 24% 2451 120443 20520 76%
c -  5.40 26 336 0 7 1570 44 11842 6320 3.8 23 6 2 8 24% 2495 120443 20520 76%
c s  5.55 26 340 0 7 1596 42 12519 6858 3.8 23 6 2 8 24% 2530 119654 20520 76%
c e  5.68 26 340 0 7 1596 42 12519 6858 3.8 23 6 2 8 24% 2013 119902 20149 74%
c s  5.68 26 340 0 7 1596 42 12519 6858 3.8 23 6 2 8 24% 2013 119453 20149 74%
c e  5.70 26 340 0 7 1596 42 12519 6858 3.8 23 6 2 8 24% 1938 119507 20103 74%
c ^  5.70 26 340 0 7 1596 42 12519 6858 3.8 23 6 2 8 24% 1938 119507 20103 74%
c -  6.29 26 335 0 8 1774 43 14487 7555 3.8 23 6 2 8 24% 1992 119507 20103 74%
c c  7.02 26 332 0 8 1973 43 15800 8733 4.1 26 6 2 8 25% 2032 119367 20081 74%
c d  7.03 26 332 0 8 1973 43 15800 8726 4.1 26 6 2 8 25% 1980 119367 20077 74%
c u  7.07 26 332 0 8 1973 43 15800 7911 4.1 26 6 2 8 25% 1993 119367 20077 74%
c v  7.12 26 332 0 8 1973 43 15800 6902 4.1 26 6 2 8 25% 1994 119367 20077 74%
c w  7.30 26 332 0 8 1973 43 15800 6888 4.1 26 6 2 8 25% 1994 119367 20077 74%
c =  7.55 26 332 0 8 1973 43 15800 6888 4.1 26 6 2 8 25% 2796 119363 19676 73%
c d  7.56 26 332 0 8 1973 43 15800 6868 4.1 26 6 2 8 25% 1966 119363 19676 73%
c
c  seconds   switched    rate        size/glue tier1    binary          remaining
c         MB  reductions   conflicts       size  tier2     irredundant
c           level  restarts     redundant    glue   trail          variables
c
c t  7.57 26 332 0 8 1973 43 15800 6868 4.1 26 6 2 8 25% 1912 119363 19676 73%
c f  7.64 26 332 0 8 1973 43 15800 6868 4.1 26 6 2 8 25% 1933 119308 19691 73%
c u  7.70 26 332 0 8 1973 43 15800 6674 4.1 26 6 2 8 25% 1934 119308 19691 73%
c v  7.73 26 332 0 8 1973 43 15800 6518 4.1 26 6 2 8 25% 1935 119308 19691 73%
c w  7.96 26 332 0 8 1973 43 15800 6469 4.1 26 6 2 8 25% 1935 119308 19691 73%
c =  8.22 26 332 0 8 1973 43 15800 6469 4.1 26 6 2 8 25% 6009 119308 17654 65%
c d  8.23 26 332 0 8 1973 43 15800 6424 4.1 26 6 2 8 25% 1840 119308 17654 65%
c t  8.25 26 332 0 8 1973 43 15800 6424 4.1 26 6 2 8 25% 1835 119308 17654 65%
c f  8.31 26 332 0 8 1973 43 15800 6424 4.1 26 6 2 8 25% 1849 119275 17662 65%
c -  8.83 27 330 0 9 2133 43 17317 7046 4.0 26 6 2 8 26% 1891 119275 17662 65%
c o  9.79 27 311 0 9 2419 42 20004 9479 4.0 27 7 2 8 26% 1922 119275 17662 65%
c -  9.92 27 309 0 10 2461 42 20318 8862 4.0 27 7 2 7 26% 1924 119275 17662 65%
c - 10.73 27 303 0 11 2722 40 23481 10518 3.9 26 7 2 7 26% 1978 119275 17662 65%
c s 11.00 27 301 0 11 2774 38 25035 11667 3.9 26 7 2 7 26% 2068 103496 17662 65%
c e 11.11 27 301 0 11 2774 38 25035 11667 3.9 26 7 2 7 26% 1671 103970 17357 64%
c s 11.12 27 301 0 11 2774 38 25035 11667 3.9 26 7 2 7 26% 1699 103437 17357 64%
c e 11.13 27 301 0 11 2774 38 25035 11667 3.9 26 7 2 7 26% 1693 103446 17354 64%
c ^ 11.13 27 301 0 11 2774 38 25035 11667 3.9 26 7 2 7 26% 1693 103446 17354 64%
c - 11.67 27 293 0 12 2982 38 26797 11339 3.6 27 8 2 7 26% 1705 103446 17354 64%
c c 11.78 27 293 0 12 2985 38 26941 11459 3.6 27 8 2 7 26% 1749 103248 17328 64%
c
c  seconds   switched     rate         size/glue tier1    binary          remaining
c         MB   reductions   conflicts        size  tier2     irredundant
c           level   restarts      redundant    glue   trail          variables
c
c d 11.78 27 293 0 12 2985 38 26941 11397 3.6 27 8 2 7 26% 1692 103248 17325 64%
c u 11.84 27 293 0 12 2985 38 26941 10085 3.6 27 8 2 7 26% 1708 103248 17325 64%
c v 11.90 27 293 0 12 2985 38 26941 8998 3.6 27 8 2 7 26% 1708 103248 17325 64%
c w 11.93 27 293 0 12 2985 38 26941 8996 3.6 27 8 2 7 26% 1708 103248 17325 64%
c x 12.00 27 293 0 12 2985 38 26941 8996 3.6 27 8 2 7 26% 1711 102362 17325 64%
c = 12.31 27 293 0 12 2985 38 26941 8996 3.6 27 8 2 7 26% 5231 102362 15565 57%
c d 12.32 27 293 0 12 2985 38 26941 8868 3.6 27 8 2 7 26% 1561 102362 15564 57%
c t 12.33 27 293 0 12 2985 38 26941 8868 3.6 27 8 2 7 26% 1527 102362 15564 57%
c f 12.40 27 293 0 12 2985 38 26941 8868 3.6 27 8 2 7 26% 1536 102306 15576 57%
c c 12.48 27 293 0 12 2985 38 26941 8864 3.6 27 8 2 7 26% 1548 102262 15570 57%
c d 12.49 27 293 0 12 2985 38 26941 8864 3.6 27 8 2 7 26% 1536 102262 15570 57%
c u 12.54 27 293 0 12 2985 38 26941 8471 3.6 27 8 2 7 26% 1536 102262 15570 57%
c v 12.58 27 293 0 12 2985 38 26941 8285 3.6 27 8 2 7 26% 1536 102262 15570 57%
c w 12.61 27 293 0 12 2985 38 26941 8284 3.6 27 8 2 7 26% 1536 102262 15570 57%
c = 12.89 27 293 0 12 2985 38 26941 8284 3.6 27 8 2 7 26% 3294 102262 14691 54%
c d 12.90 27 293 0 12 2985 38 26941 8118 3.6 27 8 2 7 26% 1510 102262 14691 54%
c t 12.92 27 293 0 12 2985 38 26941 8118 3.6 27 8 2 7 26% 1441 102262 14691 54%
c f 12.95 27 293 0 12 2985 38 26941 8118 3.6 27 8 2 7 26% 1456 102185 14706 54%
c - 13.63 27 291 0 13 3190 36 30263 10110 3.5 26 8 2 7 27% 1485 102185 14706 54%
c - 13.90 27 290 0 14 3267 33 33868 11939 3.4 25 7 2 7 26% 1536 102185 14706 54%
c
c  seconds   switched     rate         size/glue tier1    binary          remaining
c         MB   reductions   conflicts        size  tier2     irredundant
c           level   restarts      redundant    glue   trail          variables
c
c - 14.77 27 276 0 15 3553 32 37611 13633 3.3 25 7 2 6 26% 1572 102185 14706 54%
c o 15.13 27 274 0 15 3657 31 40004 15716 3.3 24 7 2 6 26% 1608 102185 14706 54%
c d 15.46 27 270 0 15 3761 31 41268 16773 3.3 25 7 2 6 26% 1548 102185 14673 54%
c u 15.52 27 270 0 15 3761 31 41268 15661 3.3 25 7 2 6 26% 1581 102185 14673 54%
c v 15.56 27 270 0 15 3761 31 41268 15060 3.3 25 7 2 6 26% 1581 102185 14673 54%
c w 15.60 27 270 0 15 3761 31 41268 15060 3.3 25 7 2 6 26% 1581 102185 14673 54%
c x 15.64 29 270 0 15 3761 31 41268 15060 3.3 25 7 2 6 26% 1581 102140 14673 54%
c = 15.84 29 270 0 15 3761 31 41268 15060 3.3 25 7 2 6 26% 1777 102140 14575 54%
c d 15.85 29 270 0 15 3761 31 41268 14657 3.3 25 7 2 6 26% 1540 102140 14571 54%
c t 15.87 29 270 0 15 3761 31 41268 14657 3.3 25 7 2 6 26% 1531 102140 14571 54%
c f 15.89 29 270 0 15 3761 31 41268 14657 3.3 25 7 2 6 26% 1537 102122 14575 54%
c c 15.96 29 270 0 15 3761 31 41268 14570 3.3 25 7 2 6 26% 1577 101930 14552 54%
c d 15.97 29 270 0 15 3761 31 41268 14570 3.3 25 7 2 6 26% 1531 101930 14552 54%
c u 16.03 29 270 0 15 3761 31 41268 13406 3.3 25 7 2 6 26% 1542 101930 14552 54%
c v 16.10 29 270 0 15 3761 31 41268 12323 3.3 25 7 2 6 26% 1543 101930 14552 54%
c w 16.16 29 270 0 15 3761 31 41268 12318 3.3 25 7 2 6 26% 1543 101930 14552 54%
c d 16.38 29 270 0 15 3761 31 41268 12316 3.3 25 7 2 6 26% 1533 101930 14547 54%
c t 16.39 29 270 0 15 3761 31 41268 12316 3.3 25 7 2 6 26% 1531 101930 14547 54%
c - 16.43 29 269 0 16 3762 30 41484 11279 3.3 25 7 2 6 26% 1531 101930 14547 54%
c - 17.13 29 265 0 17 4178 30 45484 13391 3.3 25 8 2 6 27% 1558 101930 14547 54%
c
c  seconds   switched     rate         size/glue tier1    binary          remaining
c         MB   reductions   conflicts        size  tier2     irredundant
c           level   restarts      redundant    glue   trail          variables
c
c - 17.80 29 259 0 18 4570 30 49607 15406 3.3 25 8 2 6 27% 1606 101930 14547 54%
c s 18.00 29 266 0 18 4662 29 52137 17563 3.3 25 8 2 6 26% 1650 84772 14547 54%
c e 18.06 29 266 0 18 4662 29 52137 17563 3.3 25 8 2 6 26% 1413 85186 14289 53%
c s 18.07 29 266 0 18 4662 29 52137 17563 3.3 25 8 2 6 26% 1413 84953 14289 53%
c ^ 18.07 29 266 0 18 4662 29 52137 17563 3.3 25 8 2 6 26% 1413 84953 14289 53%
c - 18.23 29 264 0 19 4767 29 53850 16411 3.3 25 8 2 6 26% 1447 84953 14289 53%
c - 18.69 29 256 0 20 5060 28 58211 18013 3.2 24 8 2 6 26% 1518 84953 14289 53%
c c 18.83 29 255 0 20 5114 28 58895 18644 3.2 24 8 2 6 26% 1607 84260 14192 52%
c d 18.83 29 255 0 20 5114 28 58895 18258 3.2 24 8 2 6 26% 1413 84260 14192 52%
c u 18.88 29 255 0 20 5114 28 58895 15643 3.2 24 8 2 6 26% 1465 84260 14192 52%
c v 18.93 29 255 0 20 5114 28 58895 14098 3.2 24 8 2 6 26% 1470 84260 14192 52%
c w 18.97 29 255 0 20 5114 28 58895 14064 3.2 24 8 2 6 26% 1470 84260 14192 52%
c d 18.98 29 255 0 20 5114 28 58895 14042 3.2 24 8 2 6 26% 1434 84260 14174 52%
c t 18.98 29 255 0 20 5114 28 58895 14042 3.2 24 8 2 6 26% 1430 84260 14174 52%
c f 19.00 29 255 0 20 5114 28 58895 14042 3.2 24 8 2 6 26% 1435 84240 14177 52%
c c 19.04 29 255 0 20 5114 28 58895 13972 3.2 24 8 2 6 26% 1472 84056 14155 52%
c d 19.05 29 255 0 20 5114 28 58895 13972 3.2 24 8 2 6 26% 1428 84056 14155 52%
c u 19.09 29 255 0 20 5114 28 58895 13349 3.2 24 8 2 6 26% 1433 84056 14155 52%
c v 19.12 29 255 0 20 5114 28 58895 13012 3.2 24 8 2 6 26% 1434 84056 14155 52%
c w 19.16 29 255 0 20 5114 28 58895 12977 3.2 24 8 2 6 26% 1434 84056 14155 52%
c
c  seconds   switched     rate         size/glue tier1    binary         remaining
c         MB   reductions   conflicts        size  tier2     irredundant
c           level   restarts      redundant    glue   trail         variables
c
c x 19.20 29 255 0 20 5114 28 58895 12977 3.2 24 8 2 6 26% 1436 83697 14155 52%
c d 19.41 29 255 0 20 5114 28 58895 12977 3.2 24 8 2 6 26% 1430 83697 14152 52%
c t 19.42 29 255 0 20 5114 28 58895 12977 3.2 24 8 2 6 26% 1428 83697 14152 52%
c - 20.13 29 252 0 21 5604 28 62683 14907 3.2 25 8 2 6 27% 1448 83697 14152 52%
c - 20.86 29 245 0 22 6057 28 67266 15894 3.3 25 8 1 6 27% 1493 83697 14152 52%
c o 21.28 29 240 0 22 6321 28 70006 18370 3.3 26 8 1 6 28% 1527 83697 14152 52%
c - 21.39 29 234 0 23 6401 27 71957 16824 3.2 25 8 1 6 27% 1562 83697 14152 52%
c - 22.06 29 228 0 24 6825 27 76753 17640 3.2 25 8 1 6 27% 1628 83697 14152 52%
c c 22.47 29 224 0 24 7056 27 79964 20465 3.2 25 8 1 6 27% 1778 82689 13988 52%
c d 22.48 29 224 0 24 7056 27 79964 19956 3.2 25 8 1 6 27% 1450 82689 13988 52%
c u 22.51 29 224 0 24 7056 27 79964 18493 3.2 25 8 1 6 27% 1464 82689 13988 52%
c v 22.59 29 224 0 24 7056 27 79964 15362 3.2 25 8 1 6 27% 1476 82689 13988 52%
c w 22.73 29 224 0 24 7056 27 79964 15308 3.2 25 8 1 6 27% 1476 82689 13988 52%
c d 22.73 29 224 0 24 7056 27 79964 15278 3.2 25 8 1 6 27% 1456 82689 13978 52%
c t 22.74 29 224 0 24 7056 27 79964 15278 3.2 25 8 1 6 27% 1449 82689 13978 52%
c f 22.75 29 224 0 24 7056 27 79964 15278 3.2 25 8 1 6 27% 1451 82681 13979 52%
c c 22.79 29 224 0 24 7056 27 79964 15233 3.2 25 8 1 6 27% 1460 82642 13973 52%
c d 22.79 29 224 0 24 7056 27 79964 15233 3.2 25 8 1 6 27% 1448 82642 13973 52%
c u 22.82 29 224 0 24 7056 27 79964 14870 3.2 25 8 1 6 27% 1450 82642 13973 52%
c v 22.87 29 224 0 24 7056 27 79964 14151 3.2 25 8 1 6 27% 1453 82642 13973 52%
c
c  seconds   switched     rate         size/glue tier1    binary         remaining
c         MB   reductions   conflicts        size  tier2     irredundant
c           level   restarts      redundant    glue   trail         variables
c
c w 22.97 29 224 0 24 7056 27 79964 14058 3.2 25 8 1 6 27% 1453 82642 13973 52%
c x 23.00 29 224 0 24 7056 27 79964 14056 3.2 25 8 1 6 27% 1454 82602 13973 52%
c d 23.01 29 224 0 24 7056 27 79964 14056 3.2 25 8 1 6 27% 1452 82602 13972 51%
c t 23.01 29 224 0 24 7056 27 79964 14056 3.2 25 8 1 6 27% 1451 82602 13972 51%
c f 23.02 29 224 0 24 7056 27 79964 14056 3.2 25 8 1 6 27% 1448 82594 13974 52%
c - 23.25 29 222 0 25 7205 26 81651 13427 3.2 26 8 1 5 27% 1463 82594 13974 52%
c - 23.83 29 217 0 26 7588 26 86653 15506 3.2 25 8 1 5 27% 1496 82594 13974 52%
c - 24.43 29 213 0 27 7921 25 91753 17434 3.1 25 8 1 5 27% 1513 82594 13974 52%
c s 24.88 29 208 0 27 8185 25 95818 21011 3.1 25 8 1 5 27% 1573 82408 13974 52%
c e 24.95 29 208 0 27 8185 25 95818 21011 3.1 25 8 1 5 27% 1017 83912 13561 50%
c s 24.96 29 208 0 27 8185 25 95818 21011 3.1 25 8 1 5 27% 1028 83374 13561 50%
c e 24.97 29 208 0 27 8185 25 95818 21011 3.1 25 8 1 5 27% 1009 83410 13553 50%
c ^ 24.97 29 208 0 27 8185 25 95818 21011 3.1 25 8 1 5 27% 1009 83410 13553 50%
c - 25.11 29 206 0 28 8248 25 96951 17235 3.1 25 8 1 5 27% 1015 83410 13553 50%
c - 25.57 29 203 0 29 8479 24 102244 18531 3.1 24 8 1 5 27% 1088 83410 13553 50%
c d 25.64 29 200 0 29 8502 23 104590 20216 3.0 24 8 1 5 27% 1055 83410 13510 50%
c u 25.68 29 200 0 29 8502 23 104590 18749 3.0 24 8 1 5 27% 1074 83410 13510 50%
c v 25.75 29 200 0 29 8502 23 104590 16109 3.0 24 8 1 5 27% 1088 83410 13510 50%
c w 25.78 29 200 0 29 8502 23 104590 15697 3.0 24 8 1 5 27% 1091 83410 13510 50%
c = 26.01 29 200 0 29 8502 23 104590 15697 3.0 24 8 1 5 27% 1515 83406 13298 49%
c
c  seconds   switched     rate          size/glue tier1    binary         remaining
c         MB   reductions   conflicts         size  tier2     irredundant
c           level   restarts       redundant    glue   trail         variables
c
c d 26.01 29 200 0 29 8502 23 104590 15311 3.0 24 8 1 5 27% 1023 83406 13295 49%
c t 26.02 29 200 0 29 8502 23 104590 15311 3.0 24 8 1 5 27% 1011 83406 13295 49%
c f 26.05 29 200 0 29 8502 23 104590 15311 3.0 24 8 1 5 27% 1012 83386 13297 49%
c c 26.08 29 200 0 29 8502 23 104590 15263 3.0 24 8 1 5 27% 1044 83202 13277 49%
c d 26.08 29 200 0 29 8502 23 104590 15263 3.0 24 8 1 5 27% 1004 83202 13277 49%
c u 26.11 29 200 0 29 8502 23 104590 14896 3.0 24 8 1 5 27% 1010 83202 13277 49%
c v 26.15 29 200 0 29 8502 23 104590 14311 3.0 24 8 1 5 27% 1015 83202 13277 49%
c w 26.17 29 200 0 29 8502 23 104590 14124 3.0 24 8 1 5 27% 1015 83202 13277 49%
c d 26.18 29 200 0 29 8502 23 104590 14122 3.0 24 8 1 5 27% 1011 83202 13275 49%
c t 26.18 29 200 0 29 8502 23 104590 14122 3.0 24 8 1 5 27% 1010 83202 13275 49%
c - 26.51 29 197 0 30 8709 23 107629 14391 3.0 24 8 1 5 27% 1021 83201 13275 49%
c o 26.83 29 194 0 30 8927 23 110009 16661 3.0 24 8 1 5 27% 1026 83201 13275 49%
c - 27.13 29 193 0 31 9136 23 113107 16681 3.0 24 8 1 6 27% 1063 83201 13275 49%
c - 27.95 29 190 0 32 9637 22 118674 18851 3.0 24 8 1 5 27% 1104 83201 13275 49%
c - 28.42 29 186 0 33 9961 22 124330 20310 3.0 24 8 1 5 27% 1189 83201 13275 49%
c - 29.42 29 184 0 34 10564 22 130077 21811 3.1 25 8 1 5 27% 1210 83201 13275 49%
c c 29.83 29 182 0 34 10756 22 132844 24426 3.1 25 8 1 5 28% 1275 82514 13170 49%
c d 29.83 29 182 0 34 10756 22 132844 23926 3.1 25 8 1 5 28% 1065 82514 13170 49%
c u 29.88 29 182 0 34 10756 22 132844 22135 3.1 25 8 1 5 28% 1083 82514 13170 49%
c v 29.95 29 182 0 34 10756 22 132844 18809 3.1 25 8 1 5 28% 1091 82514 13170 49%
c
c  seconds   switched      rate          size/glue tier1    binary         remaining
c         MB   reductions    conflicts         size  tier2     irredundant
c           level   restarts        redundant    glue   trail         variables
c
c w 30.03 29 182 0 34 10756 22 132844 18801 3.1 25 8 1 5 28% 1091 82514 13170 49%
c x 30.10 29 182 0 34 10756 22 132844 18786 3.1 25 8 1 5 28% 1115 80404 13170 49%
c = 30.53 29 182 0 34 10756 22 132844 18786 3.1 25 8 1 5 28% 1645 80378 12905 48%
c d 30.53 29 182 0 34 10756 22 132844 18556 3.1 25 8 1 5 28% 1078 80378 12905 48%
c t 30.54 29 182 0 34 10756 22 132844 18556 3.1 25 8 1 5 28% 1018 80378 12905 48%
c f 30.56 29 182 0 34 10756 22 132844 18556 3.1 25 8 1 5 28% 1018 80282 12914 48%
c u 30.63 29 182 0 34 10756 22 132844 17939 3.1 25 8 1 5 28% 1025 80282 12914 48%
c v 30.67 29 182 0 34 10756 22 132844 17144 3.1 25 8 1 5 28% 1027 80282 12914 48%
c w 30.84 29 182 0 34 10756 22 132844 16732 3.1 25 8 1 5 28% 1027 80282 12914 48%
c t 31.20 29 182 0 34 10756 22 132844 16732 3.1 25 8 1 5 28% 1024 80282 12914 48%
c - 31.60 29 180 0 35 11007 22 135907 16955 3.1 25 8 1 5 28% 1027 80282 12914 48%
c - 32.38 29 177 0 36 11516 22 141827 19344 3.0 25 8 1 5 28% 1042 80282 12914 48%
c - 33.37 29 175 0 37 12105 22 147827 21378 3.1 26 8 1 5 29% 1063 80282 12914 48%
c - 34.25 29 172 0 38 12592 22 153909 23023 3.1 26 8 1 5 29% 1075 80282 12914 48%
c s 34.78 29 170 0 38 12894 21 157903 26713 3.1 26 8 1 5 29% 1099 78601 12914 48%
c e 34.88 29 170 0 38 12894 21 157903 26713 3.1 26 8 1 5 29% 919 89740 11458 42%
c s 34.90 29 170 0 38 12894 21 157903 26713 3.1 26 8 1 5 29% 921 87545 11458 42%
c e 34.92 29 170 0 38 12894 21 157903 26713 3.1 26 8 1 5 29% 900 87670 11439 42%
c ^ 34.92 29 170 0 38 12894 21 157903 26713 3.1 26 8 1 5 29% 900 87670 11439 42%
c - 35.13 29 169 0 39 13013 21 160073 18478 3.1 26 8 1 5 29% 906 87668 11439 42%
c
c  seconds   switched      rate          size/glue tier1   binary         remaining
c         MB   reductions    conflicts         size  tier2    irredundant
c           level   restarts        redundant    glue   trail        variables
c
c o 35.14 29 169 0 39 13014 21 160079 18484 3.1 26 8 1 5 29% 906 87668 11439 42%
c u 35.76 29 167 0 39 13403 21 164841 21077 3.1 26 8 1 5 30% 926 87664 11439 42%
c v 35.83 29 167 0 39 13403 21 164841 18195 3.1 26 8 1 5 30% 929 87664 11439 42%
c w 35.97 29 167 0 39 13403 21 164841 18150 3.1 26 8 1 5 30% 929 87664 11439 42%
c x 36.05 29 167 0 39 13403 21 164841 18135 3.1 26 8 1 5 30% 965 87427 11439 42%
c d 36.06 29 167 0 39 13403 21 164841 18135 3.1 26 8 1 5 30% 961 87427 11437 42%
c t 36.07 29 167 0 39 13403 21 164841 18135 3.1 26 8 1 5 30% 901 87427 11437 42%
c u 36.20 29 167 0 39 13403 21 164841 17784 3.1 26 8 1 5 30% 909 87427 11437 42%
c v 36.24 29 167 0 39 13403 21 164841 17115 3.1 26 8 1 5 30% 909 87427 11437 42%
c w 36.40 29 167 0 39 13403 21 164841 16683 3.1 26 8 1 5 30% 909 87427 11437 42%
c x 36.47 29 167 0 39 13403 21 164841 16683 3.1 26 8 1 5 30% 914 87373 11437 42%
c t 36.93 29 167 0 39 13403 21 164841 16683 3.1 26 8 1 5 30% 908 87373 11437 42%
c - 37.06 29 166 0 40 13459 21 166318 15358 3.0 26 8 1 5 29% 913 87373 11437 42%
c - 37.79 29 164 0 41 13915 21 172642 18117 3.0 26 8 1 5 30% 935 87372 11437 42%
c i 38.25 29 162 0 41 14184 20 177471 22628 3.0 25 8 1 5 30% 952 87371 11436 42%
c - 38.49 29 162 0 42 14348 20 179049 20375 3.0 25 8 1 5 30% 949 87371 11436 42%
c i 38.58 29 161 0 42 14396 20 180054 21300 3.0 25 8 1 5 30% 954 87371 11435 42%
c i 38.66 29 161 0 42 14456 20 180735 21924 3.0 25 8 1 5 30% 960 87371 11434 42%
c i 38.93 29 160 0 42 14634 20 182755 23844 3.0 25 9 1 5 30% 966 87371 11433 42%
c i 39.16 29 159 0 42 14780 20 184782 25772 3.0 25 9 1 5 30% 970 87367 11432 42%
c
c  seconds   switched      rate          size/glue tier1   binary         remaining
c         MB   reductions    conflicts         size  tier2    irredundant
c           level   restarts        redundant    glue   trail        variables
c
c - 39.28 29 159 0 43 14852 20 185529 21810 3.0 25 9 1 5 30% 955 87367 11432 42%
c i 39.43 29 158 0 43 14966 20 186480 22695 3.0 25 9 1 5 30% 959 87365 11430 42%
c i 39.43 29 158 0 43 14967 20 186528 22725 3.0 25 9 1 5 30% 962 87365 11429 42%
c i 40.16 29 157 0 43 15435 20 191709 27604 3.0 26 9 1 5 30% 978 87364 11428 42%
c - 40.21 29 156 0 44 15482 20 192088 23034 3.0 26 9 1 5 30% 976 87364 11428 42%
c i 40.35 29 155 0 44 15552 20 193970 24721 2.9 25 9 1 5 30% 988 87364 11427 42%
c i 40.45 29 154 0 44 15606 20 195216 25889 2.9 25 9 1 5 30% 991 87364 11426 42%
c i 40.54 29 154 0 44 15651 20 196006 26610 2.9 25 9 1 5 30% 996 87364 11424 42%
c i 40.66 29 154 0 44 15715 20 196976 27493 2.9 25 9 1 5 30% 1004 87362 11423 42%
c - 40.94 29 153 0 45 15893 20 198722 24069 2.9 25 9 1 5 30% 978 87362 11423 42%
c i 41.14 29 152 0 45 16011 20 200597 25824 2.9 25 9 1 5 30% 983 87361 11422 42%
c d 41.15 29 152 0 45 16011 20 200636 25833 2.9 25 9 1 5 30% 1005 87164 11417 42%
c d 41.15 29 152 0 45 16011 20 200636 25820 2.9 25 9 1 5 30% 976 87143 11403 42%
c b 41.16 29 152 0 45 16011 20 200636 25820 2.9 25 9 1 5 30% 976 87143 11401 42%
c u 41.20 29 152 0 45 16011 20 200636 24007 2.9 25 9 1 5 30% 998 87143 11401 42%
c v 41.28 29 152 0 45 16011 20 200636 19997 2.9 25 9 1 5 30% 1008 87143 11401 42%
c w 41.38 29 152 0 45 16011 20 200636 19533 2.9 25 9 1 5 30% 1008 87143 11401 42%
c d 41.39 29 152 0 45 16011 20 200636 19533 2.9 25 9 1 5 30% 1010 87121 11399 42%
c d 41.39 29 152 0 45 16011 20 200636 19533 2.9 25 9 1 5 30% 1003 87116 11396 42%
c t 41.39 29 152 0 45 16011 20 200636 19533 2.9 25 9 1 5 30% 971 87116 11396 42%
c
c  seconds   switched      rate          size/glue tier1   binary         remaining
c         MB   reductions    conflicts         size  tier2    irredundant
c           level   restarts        redundant    glue   trail        variables
c
c u 41.44 29 152 0 45 16011 20 200636 19171 2.9 25 9 1 5 30% 977 87116 11396 42%
c v 41.49 29 152 0 45 16011 20 200636 18402 2.9 25 9 1 5 30% 980 87116 11395 42%
c w 41.57 29 152 0 45 16011 20 200636 18194 2.9 25 9 1 5 30% 980 87116 11395 42%
c x 41.69 29 152 0 45 16011 20 200636 18153 2.9 25 9 1 5 30% 1050 85613 11392 42%
c d 41.70 29 152 0 45 16011 20 200636 18145 2.9 25 9 1 5 30% 1031 85606 11382 42%
c d 41.70 29 152 0 45 16011 20 200636 18145 2.9 25 9 1 5 30% 1029 85606 11381 42%
c t 41.70 29 152 0 45 16011 20 200636 18145 2.9 25 9 1 5 30% 979 85606 11381 42%
c i 41.71 29 152 0 45 16011 20 200636 18145 2.9 25 9 1 5 30% 979 85606 11381 42%
c i 41.75 29 152 0 45 16027 20 200939 18427 2.9 25 9 1 5 30% 981 85602 11380 42%
c i 41.78 29 152 0 45 16041 20 201435 18865 2.9 25 9 1 5 30% 984 85594 11379 42%
c i 42.11 29 150 0 45 16224 19 205119 22272 2.9 25 9 1 5 30% 993 85587 11378 42%
c i 42.11 29 150 0 45 16228 19 205143 22279 2.9 25 9 1 5 30% 996 85587 11377 42%
c - 42.14 29 150 0 46 16249 19 205430 18803 2.9 25 9 1 5 30% 955 85586 11377 42%
c i 42.27 29 149 0 46 16312 19 207125 20392 2.9 25 9 1 5 30% 962 85585 11376 42%
c i 42.29 29 149 0 46 16316 19 207418 20669 2.9 25 9 1 5 30% 964 85583 11375 42%
c i 42.33 29 149 0 46 16346 19 207842 21056 2.9 25 9 1 5 30% 969 85577 11373 42%
c i 42.34 29 149 0 46 16349 19 207879 21091 2.9 25 9 1 5 30% 970 85577 11372 42%
c i 42.43 29 148 0 46 16382 19 209005 22135 2.8 25 9 1 5 30% 974 85573 11371 42%
c i 42.47 29 148 0 46 16395 19 209637 22706 2.8 25 9 1 5 30% 981 85570 11370 42%
c i 42.50 29 148 0 46 16403 19 209921 22962 2.8 24 9 1 5 30% 984 85570 11369 42%
c
c  seconds   switched      rate          size/glue tier1   binary         remaining
c         MB   reductions    conflicts         size  tier2    irredundant
c           level   restarts        redundant    glue   trail        variables
c
c i 42.50 29 148 0 46 16410 19 209998 23026 2.8 24 9 1 5 30% 988 85569 11368 42%
c i 42.59 29 147 0 46 16453 19 211288 24194 2.8 24 9 1 5 30% 995 85568 11367 42%
c - 42.64 29 147 0 47 16486 18 212214 20936 2.8 24 9 1 5 30% 956 85568 11367 42%
c i 42.66 29 147 0 47 16499 18 212369 21083 2.8 24 9 1 5 30% 956 85568 11366 42%
c i 42.67 29 147 0 47 16507 18 212593 21262 2.8 24 9 1 5 29% 961 85568 11365 42%
c i 42.73 29 146 0 47 16562 18 213531 22109 2.8 24 9 1 5 29% 969 85565 11364 42%
c i 42.73 29 146 0 47 16568 18 213593 22155 2.8 24 9 1 5 29% 971 85565 11363 42%
c i 42.74 29 146 0 47 16574 18 213668 22218 2.8 24 9 1 5 29% 974 85565 11362 42%
c i 42.78 29 145 0 47 16600 18 214529 22965 2.8 24 9 1 5 29% 982 85557 11361 42%
c i 42.79 29 143 0 47 16605 18 216032 24216 2.8 24 9 1 5 29% 987 85553 11360 42%
c i 42.80 29 143 0 47 16608 18 216237 24384 2.8 24 9 1 5 29% 989 85550 11359 42%
c i 42.80 29 143 0 47 16608 18 216280 24399 2.8 24 9 1 5 29% 996 85550 11353 42%
c i 42.80 29 143 0 47 16608 18 216287 24401 2.8 24 9 1 5 29% 996 85550 11352 42%
c } 42.80 29 143 0 47 16608 18 216298 24402 2.8 24 9 1 5 29% 997 85550 11348 42%
c 0 42.80 29 143 0 47 16608 18 216298 24402 2.8 24 9 1 5 29% 997 85550 11348 42%
c
c ---- [ result ] ------------------------------------------------------------
c
s UNSATISFIABLE
c
c ---- [ profiling ] ---------------------------------------------------------
c
c          31.69   74.03 %  search
c          31.69   74.03 %  focused
c          10.50   24.52 %  simplify
c          10.09   23.58 %  probe
c           4.29   10.03 %  vivify
c           3.60    8.41 %  sweep
c           0.81    1.88 %  factor
c           0.69    1.60 %  eliminate
c           0.68    1.59 %  congruence
c           0.56    1.30 %  substitute
c           0.54    1.26 %  preprocess
c           0.24    0.57 %  fastel
c           0.23    0.55 %  reduce
c           0.11    0.26 %  subsume
c           0.10    0.22 %  transitive
c           0.06    0.15 %  backbone
c           0.05    0.12 %  lucky
c           0.03    0.07 %  parse
c =============================================
c          42.80  100.00 %  total
c
c ---- [ statistics ] --------------------------------------------------------
c
c chronological:                         7568                3 %  conflicts
c conflicts:                           216298             5053.40 per second
c congruent:                              492                2 %  variables
c decisions:                          4376954               20.24 per conflict
c eliminated:                           12986               48 %  variables
c factored:                              3690               14 %  variables
c fast_eliminated:                      10107               78 %  eliminated
c fast_strengthened:                      157                5 %  per strengthened
c fast_subsumed:                           95                0 %  per subsumed
c iterations:                              38                0 %  variables
c propagations:                     177863796          4155459    per second
c reductions:                              47             4602    interval
c reordered:                                6            36050    interval
c restarts:                             16608               13    interval
c strengthened:                          3315                0 %  checks
c substituted:                           6431               24 %  variables
c subsumed:                             39593                1 %  checks
c switched:                                 0                0    interval
c vivified:                             72515               12 %  checks
c
c ---- [ glue usage ] --------------------------------------------------------
c
c focused glue 1 used 343450 clauses 57.68% accumulated 57.68% tier1
c focused glue 2 used 115386 clauses 19.38% accumulated 77.06%
c focused glue 3 used  40315 clauses  6.77% accumulated 83.83%
c focused glue 4 used  21953 clauses  3.69% accumulated 87.51%
c focused glue 5 used  15430 clauses  2.59% accumulated 90.11% tier2
c
c ---- [ resources ] ---------------------------------------------------------
c
c maximum-resident-set-size:         30007296 bytes         29 MB
c process-time:                            43s              42.80 seconds
c
c ---- [ shutting down ] -----------------------------------------------------
c
c exit 20
